NAME: inst2.atsp
TYPE: ATSP
DIMENSION: 8
EDGE_WEIGHT_TYPE: EXPLICIT
EDGE_WEIGHT_FORMAT: FULL_MATRIX
EDGE_WEIGHT_SECTION:
0 10 22 67 51 89 64 72
3 0 23 77 96 54 3 31
40 60 0 17 91 53 43 53
26 44 62 0 17 26 92 10
63 88 14 17 0 51 31 9
53 8 86 37 13 0 87 87
80 43 44 89 16 45 0 87
57 11 14 50 23 8 13 0
EOF